# Solution for model HELLO
# Objective value = 10616
XXXXXXX0 1
XXXXXXX1 1
XXXXXXX2 1
XXXXXXX3 1
XXXXXXX4 0
XXXXXXX5 1
XXXXXXX6 1
XXXXXXX7 1
XXXXXXX8 1
XXXXXXX9 1
XXXXXX10 1
XXXXXX11 0
XXXXXX12 1
XXXXXX13 1
XXXXXX14 1
XXXXXX15 1
XXXXXX16 1
XXXXXX17 1
XXXXXX18 1
XXXXXX19 1
XXXXXX20 1
XXXXXX21 0
XXXXXX22 1
XXXXXX23 1
XXXXXX24 1
XXXXXX25 1
XXXXXX26 1
XXXXXX27 1
XXXXXX28 1
XXXXXX29 1
XXXXXX30 0
XXXXXX31 1
XXXXXX32 1
XXXXXX33 1
XXXXXX34 1
XXXXXX35 1
XXXXXX36 1
XXXXXX37 1
XXXXXX38 1
XXXXXX39 0
XXXXXX40 1
XXXXXX41 1
XXXXXX42 1
XXXXXX43 1
XXXXXX44 0
XXXXXX45 1
XXXXXX46 0
XXXXXX47 1
XXXXXX48 1
XXXXXX49 1
XXXXXX50 1
XXXXXX51 1
XXXXXX52 1
XXXXXX53 1
XXXXXX54 1
XXXXXX55 1
XXXXXX56 1
XXXXXX57 1
XXXXXX58 1
XXXXXX59 1
XXXXXX60 1
XXXXXX61 1
XXXXXX62 1
XXXXXX63 1
XXXXXX64 1
XXXXXX65 1
XXXXXX66 1
XXXXXX67 1
XXXXXX68 1
XXXXXX69 1
XXXXXX70 1
XXXXXX71 0
XXXXXX72 1
XXXXXX73 1
XXXXXX74 1
XXXXXX75 1
XXXXXX76 1
XXXXXX77 1
XXXXXX78 1
XXXXXX79 1
XXXXXX80 0
XXXXXX81 1
XXXXXX82 0
XXXXXX83 1
XXXXXX84 1
XXXXXX85 1
XXXXXX86 1
XXXXXX87 1
XXXXXX88 0
XXXXXX89 0
XXXXXX90 0
XXXXXX91 0
XXXXXX92 0
XXXXXX93 0
XXXXXX94 0
XXXXXX95 0
XXXXXX96 0
XXXXXX97 0
XXXXXX98 0
XXXXXX99 0
XXXXX100 0
XXXXX101 0
XXXXX102 0
XXXXX103 0
XXXXX104 0
XXXXX105 0
XXXXX106 0
XXXXX107 0
XXXXX108 0
XXXXX109 0
XXXXX110 0
XXXXX111 0
XXXXX112 0
XXXXX113 0
XXXXX114 0
XXXXX115 0
XXXXX116 0
XXXXX117 0
XXXXX118 0
XXXXX119 0
XXXXX120 0
XXXXX121 0
XXXXX122 0
XXXXX123 0
XXXXX124 0
XXXXX125 0
XXXXX126 0
XXXXX127 0
XXXXX128 0
XXXXX129 0
XXXXX130 0
XXXXX131 0
XXXXX132 0
XXXXX133 0
XXXXX134 0
XXXXX135 0
XXXXX136 0
XXXXX137 0
XXXXX138 0
XXXXX139 0
XXXXX140 0
XXXXX141 0
XXXXX142 0
XXXXX143 0
XXXXX144 0
XXXXX145 0
XXXXX146 0
XXXXX147 0
XXXXX148 0
XXXXX149 0
XXXXX150 0
XXXXX151 0
XXXXX152 0
XXXXX153 0
XXXXX154 0
XXXXX155 0
XXXXX156 0
XXXXX157 0
XXXXX158 0
XXXXX159 0
XXXXX160 0
XXXXX161 0
XXXXX162 0
XXXXX163 0
XXXXX164 0
XXXXX165 0
XXXXX166 0
XXXXX167 0
XXXXX168 0
XXXXX169 0
XXXXX170 0
XXXXX171 0
XXXXX172 0
XXXXX173 0
XXXXX174 0
XXXXX175 0
XXXXX176 0
XXXXX177 0
XXXXX178 0
XXXXX179 0
XXXXX180 0
XXXXX181 0
XXXXX182 0
XXXXX183 0
XXXXX184 0
XXXXX185 0
XXXXX186 0
XXXXX187 0
XXXXX188 0
XXXXX189 0
XXXXX190 0
XXXXX191 0
XXXXX192 0
XXXXX193 0
XXXXX194 0
XXXXX195 0
XXXXX196 0
XXXXX197 0
XXXXX198 0
XXXXX199 0
XXXXX200 0
XXXXX201 0
XXXXX202 0
XXXXX203 1
XXXXX204 1
XXXXX205 1
XXXXX206 0
XXXXX207 1
XXXXX208 1
XXXXX209 1
XXXXX210 1
XXXXX211 1
XXXXX212 1
XXXXX213 1
XXXXX214 1
XXXXX215 1
XXXXX216 1
XXXXX217 1
XXXXX218 0
XXXXX219 1
XXXXX220 1
XXXXX221 1
XXXXX222 1
XXXXX223 1
XXXXX224 1
XXXXX225 1
XXXXX226 0
XXXXX227 1
XXXXX228 0
XXXXX229 1
XXXXX230 1
XXXXX231 1
XXXXX232 1
XXXXX233 0
XXXXX234 1
XXXXX235 1
XXXXX236 1
XXXXX237 1
XXXXX238 1
XXXXX239 1
XXXXX240 1
XXXXX241 1
XXXXX242 1
XXXXX243 1
XXXXX244 1
XXXXX245 1
XXXXX246 1
XXXXX247 1
XXXXX248 1
XXXXX249 1
XXXXX250 1
XXXXX251 1
XXXXX252 1
XXXXX253 0
XXXXX254 1
XXXXX255 1
XXXXX256 1
XXXXX257 1
XXXXX258 1
XXXXX259 1
XXXXX260 1
XXXXX261 1
XXXXX262 1
XXXXX263 1
XXXXX264 1
XXXXX265 1
XXXXX266 0
XXXXX267 1
XXXXX268 1
XXXXX269 1
XXXXX270 0
XXXXX271 1
XXXXX272 1
XXXXX273 1
XXXXX274 1
XXXXX275 1
XXXXX276 1
XXXXX277 1
XXXXX278 1
XXXXX279 1
XXXXX280 1
XXXXX281 1
XXXXX282 0
XXXXX283 0
XXXXX284 0
XXXXX285 1
XXXXX286 1
XXXXX287 1
XXXXX288 1
XXXXX289 1
XXXXX290 1
XXXXX291 1
XXXXX292 1
XXXXX293 1
XXXXX294 1
XXXXX295 1
XXXXX296 1
XXXXX297 1
XXXXX298 1
XXXXX299 1
XXXXX300 1
XXXXX301 1
XXXXX302 0
XXXXX303 0
XXXXX304 0
XXXXX305 0
XXXXX306 0
XXXXX307 0
XXXXX308 0
XXXXX309 0
XXXXX310 0
XXXXX311 0
XXXXX312 0
XXXXX313 0
XXXXX314 0
XXXXX315 0
XXXXX316 0
XXXXX317 0
XXXXX318 0
XXXXX319 0
XXXXX320 0
XXXXX321 0
XXXXX322 0
XXXXX323 0
XXXXX324 0
XXXXX325 0
XXXXX326 0
XXXXX327 0
XXXXX328 0
XXXXX329 0
XXXXX330 0
XXXXX331 0
XXXXX332 0
XXXXX333 0
XXXXX334 0
XXXXX335 0
XXXXX336 0
XXXXX337 0
XXXXX338 0
XXXXX339 0
XXXXX340 0
XXXXX341 0
XXXXX342 0
XXXXX343 0
XXXXX344 0
XXXXX345 0
XXXXX346 0
XXXXX347 0
XXXXX348 0
XXXXX349 0
XXXXX350 0
XXXXX351 0
XXXXX352 0
XXXXX353 0
XXXXX354 0
XXXXX355 0
XXXXX356 0
XXXXX357 0
XXXXX358 0
XXXXX359 0
XXXXX360 0
XXXXX361 0
XXXXX362 0
XXXXX363 0
XXXXX364 0
XXXXX365 0
XXXXX366 0
XXXXX367 0
XXXXX368 0
XXXXX369 0
XXXXX370 0
XXXXX371 0
XXXXX372 0
XXXXX373 0
XXXXX374 0
XXXXX375 0
XXXXX376 0
XXXXX377 0
XXXXX378 0
XXXXX379 0
XXXXX380 0
XXXXX381 0
XXXXX382 0
XXXXX383 0
XXXXX384 0
XXXXX385 0
XXXXX386 0
XXXXX387 0
XXXXX388 0
XXXXX389 0
XXXXX390 0
XXXXX391 0
XXXXX392 0
XXXXX393 0
XXXXX394 0
XXXXX395 0
XXXXX396 0
XXXXX397 0
XXXXX398 0
XXXXX399 0
XXXXX400 0
XXXXX401 0
XXXXX402 0
XXXXX403 0
XXXXX404 0
XXXXX405 0
XXXXX406 0
XXXXX407 0
XXXXX408 0
XXXXX409 0
XXXXX410 0
XXXXX411 0
XXXXX412 0
XXXXX413 0
XXXXX414 0
XXXXX415 0
XXXXX416 1
XXXXX417 1
XXXXX418 1
XXXXX419 0
XXXXX420 1
XXXXX421 1
XXXXX422 1
XXXXX423 1
XXXXX424 1
XXXXX425 1
XXXXX426 1
XXXXX427 0
XXXXX428 1
XXXXX429 1
XXXXX430 1
XXXXX431 1
XXXXX432 1
XXXXX433 1
XXXXX434 1
XXXXX435 1
XXXXX436 1
XXXXX437 1
XXXXX438 1
XXXXX439 1
XXXXX440 1
XXXXX441 1
XXXXX442 1
XXXXX443 1
XXXXX444 1
XXXXX445 1
XXXXX446 1
XXXXX447 1
XXXXX448 1
XXXXX449 1
XXXXX450 0
XXXXX451 1
XXXXX452 0
XXXXX453 0
XXXXX454 1
XXXXX455 1
XXXXX456 1
XXXXX457 1
XXXXX458 1
XXXXX459 1
XXXXX460 0
XXXXX461 1
XXXXX462 1
XXXXX463 1
XXXXX464 0
XXXXX465 1
XXXXX466 1
XXXXX467 0
XXXXX468 0
XXXXX469 0
XXXXX470 1
XXXXX471 1
XXXXX472 1
XXXXX473 1
XXXXX474 1
XXXXX475 1
XXXXX476 1
XXXXX477 1
XXXXX478 1
XXXXX479 1
XXXXX480 1
XXXXX481 0
XXXXX482 0
XXXXX483 1
XXXXX484 1
XXXXX485 1
XXXXX486 0
XXXXX487 0
XXXXX488 1
XXXXX489 1
XXXXX490 1
XXXXX491 1
XXXXX492 1
XXXXX493 1
XXXXX494 1
XXXXX495 1
XXXXX496 1
XXXXX497 1
XXXXX498 0
XXXXX499 1
YYYYYYY0 1
YYYYYYY1 0
YYYYYYY2 1
YYYYYYY3 0
YYYYYYY4 1
